nohup: ignoring input
miplib2017_binary-small
symmetric
./result/miplib2017/miplib2017_purebinary_solved.txt
original problem has 2025 variables (1800 bin, 0 int, 0 impl, 225 cont) and 230 constraints
10teams


miplib2017_binary-0
Number of variables 2025
Number of binary variables 1800
* Model status: sollimit
* Solving time: 4.707562
* number of sol :  1
* Model status: optimal
* Solving time: 9.695778
* number of sol :  1
original problem has 200 variables (200 bin, 0 int, 0 impl, 0 cont) and 17013 constraints
2club200v15p5scn


miplib2017_binary-0
Number of variables 200
Number of binary variables 200
* Model status: sollimit
* Solving time: 0.094431
* number of sol :  1
* Model status: nodelimit
* Solving time: 21.484587
* number of sol :  2
wrote problem to file /home/liudefen/projects/ML4LocalBranch_extend/data/generated_instances/miplib2017_binary/-small/transformedmodel/miplib2017_binary-0_transformed.cip
original problem has 200 variables (200 bin, 0 int, 0 impl, 0 cont) and 17013 constraints
-27.0
-27.0
original problem has 10772 variables (10771 bin, 0 int, 0 impl, 1 cont) and 12050 constraints
30_70_45_05_100


miplib2017_binary-1
Number of variables 10772
Number of binary variables 10771
* Model status: sollimit
* Solving time: 0.091472
* number of sol :  1
